import Types.dzn;

interface IPositionSensor
{
    in void getCurrentPosition(Position posInM);
    in void getLastEndstopPosition(Position posInM);

    behavior {
        on getCurrentPosition, getLastEndstopPosition: {}
    }
}